DIMACS_lns/graph-1000-790.col
p edge 1000 1814
e 1 691
e 1 787
e 1 565
e 1 486
e 4 433
e 4 171
e 4 421
e 5 498
e 5 643
e 5 733
e 8 842
e 8 963
e 8 402
e 8 362
e 10 52
e 10 143
e 10 931
e 11 423
e 11 959
e 11 335
e 13 880
e 13 38
e 13 642
e 13 144
e 13 588
e 13 705
e 14 704
e 14 451
e 14 119
e 14 572
e 14 746
e 14 168
e 14 795
e 14 318
e 15 228
e 15 523
e 15 769
e 15 909
e 15 605
e 15 196
e 16 423
e 16 915
e 16 69
e 16 940
e 19 585
e 19 664
e 19 460
e 20 707
e 20 426
e 20 614
e 21 236
e 21 484
e 21 33
e 21 460
e 22 785
e 22 90
e 22 995
e 22 676
e 23 196
e 23 916
e 23 329
e 24 696
e 24 554
e 24 835
e 24 816
e 24 743
e 27 837
e 27 403
e 27 963
e 27 342
e 27 887
e 27 238
e 28 162
e 28 650
e 28 606
e 28 167
e 29 168
e 29 606
e 29 740
e 31 535
e 31 510
e 31 272
e 33 366
e 33 569
e 33 391
e 33 173
e 33 107
e 33 920
e 33 602
e 34 51
e 34 842
e 34 663
e 34 931
e 36 294
e 36 901
e 36 427
e 36 696
e 36 712
e 36 574
e 36 391
e 38 255
e 38 651
e 38 281
e 38 192
e 38 828
e 39 589
e 39 801
e 39 453
e 40 123
e 40 768
e 40 735
e 40 653
e 44 434
e 44 708
e 44 56
e 45 321
e 45 381
e 45 380
e 45 438
e 45 607
e 46 659
e 46 82
e 46 736
e 46 99
e 46 150
e 47 178
e 47 995
e 47 292
e 47 181
e 48 902
e 48 552
e 48 542
e 48 332
e 48 171
e 49 999
e 49 566
e 49 578
e 49 613
e 49 191
e 49 289
e 49 372
e 50 229
e 50 548
e 50 618
e 50 951
e 50 434
e 51 934
e 51 906
e 51 169
e 52 152
e 52 191
e 52 713
e 52 884
e 52 476
e 52 449
e 52 833
e 52 657
e 53 783
e 53 909
e 53 542
e 54 573
e 54 146
e 54 686
e 56 590
e 56 256
e 56 724
e 56 110
e 56 191
e 56 729
e 57 696
e 57 626
e 57 996
e 57 462
e 57 794
e 58 702
e 58 130
e 58 577
e 58 280
e 60 622
e 60 110
e 60 81
e 60 774
e 60 434
e 60 367
e 60 235
e 62 332
e 62 230
e 62 281
e 62 639
e 63 769
e 63 388
e 63 907
e 63 497
e 63 722
e 63 514
e 63 686
e 63 381
e 67 985
e 67 952
e 67 127
e 67 906
e 67 553
e 67 591
e 69 242
e 69 869
e 69 476
e 69 846
e 69 249
e 69 133
e 69 652
e 69 963
e 70 837
e 70 261
e 70 524
e 71 305
e 71 771
e 71 392
e 71 727
e 72 432
e 72 997
e 72 971
e 72 812
e 72 629
e 72 974
e 72 278
e 72 956
e 74 296
e 74 643
e 74 460
e 75 334
e 75 785
e 75 806
e 76 514
e 76 240
e 76 974
e 76 611
e 77 955
e 77 415
e 77 469
e 77 134
e 77 613
e 77 373
e 77 318
e 79 377
e 79 767
e 79 868
e 79 563
e 80 385
e 80 303
e 80 930
e 81 885
e 81 386
e 81 616
e 82 127
e 82 673
e 82 481
e 83 417
e 83 530
e 83 497
e 83 604
e 84 695
e 84 320
e 84 143
e 84 158
e 84 999
e 85 902
e 85 528
e 85 96
e 85 278
e 87 868
e 87 214
e 87 611
e 87 647
e 87 446
e 87 891
e 88 593
e 88 862
e 88 820
e 88 784
e 88 694
e 89 915
e 89 514
e 89 609
e 90 197
e 90 990
e 93 518
e 93 939
e 93 179
e 94 609
e 94 643
e 94 682
e 95 588
e 95 727
e 95 552
e 95 362
e 95 945
e 95 236
e 95 775
e 96 159
e 96 783
e 96 255
e 96 514
e 97 360
e 97 393
e 97 335
e 97 244
e 97 934
e 97 904
e 98 903
e 98 486
e 98 613
e 98 397
e 98 156
e 98 830
e 99 359
e 99 909
e 99 683
e 99 390
e 99 167
e 100 183
e 100 479
e 100 446
e 100 203
e 101 811
e 101 758
e 101 268
e 101 729
e 101 887
e 101 589
e 101 1000
e 102 113
e 102 907
e 102 216
e 102 862
e 104 473
e 104 708
e 104 332
e 106 279
e 106 568
e 106 957
e 106 277
e 106 912
e 107 944
e 107 151
e 108 848
e 108 521
e 108 799
e 110 296
e 110 980
e 110 897
e 110 392
e 110 222
e 111 469
e 111 181
e 111 532
e 111 136
e 112 487
e 112 933
e 112 836
e 112 452
e 113 184
e 113 664
e 113 295
e 113 432
e 113 635
e 113 645
e 114 234
e 114 364
e 114 478
e 117 811
e 117 241
e 117 939
e 119 125
e 119 211
e 119 494
e 119 713
e 119 297
e 119 901
e 119 943
e 120 132
e 120 386
e 120 321
e 121 141
e 121 440
e 121 427
e 122 682
e 122 387
e 122 383
e 123 763
e 123 165
e 125 936
e 125 247
e 125 360
e 125 828
e 125 320
e 125 651
e 126 878
e 126 945
e 126 683
e 126 593
e 126 412
e 126 154
e 126 813
e 126 455
e 127 142
e 127 768
e 127 146
e 127 892
e 127 466
e 127 425
e 128 229
e 128 895
e 128 537
e 128 556
e 129 776
e 129 903
e 129 594
e 129 727
e 130 647
e 130 769
e 130 436
e 130 682
e 132 551
e 132 820
e 132 282
e 133 806
e 133 574
e 133 160
e 134 558
e 134 839
e 134 329
e 136 564
e 136 845
e 136 762
e 136 889
e 138 452
e 138 654
e 138 841
e 138 851
e 139 583
e 139 180
e 139 446
e 141 287
e 141 374
e 141 733
e 141 155
e 142 227
e 142 255
e 142 499
e 142 755
e 143 537
e 144 302
e 144 393
e 144 598
e 144 950
e 145 774
e 145 256
e 145 873
e 145 664
e 145 278
e 146 172
e 146 178
e 146 202
e 147 151
e 147 893
e 147 851
e 147 568
e 148 882
e 148 943
e 148 998
e 148 631
e 149 917
e 149 555
e 149 521
e 149 879
e 149 184
e 150 692
e 150 516
e 150 215
e 151 723
e 151 499
e 152 376
e 152 353
e 152 469
e 152 806
e 153 393
e 153 205
e 153 444
e 153 447
e 153 910
e 154 547
e 154 930
e 154 549
e 154 960
e 154 224
e 154 971
e 155 411
e 155 387
e 155 396
e 156 581
e 156 376
e 156 404
e 156 756
e 156 463
e 156 655
e 156 322
e 158 393
e 158 659
e 158 305
e 158 969
e 159 702
e 159 322
e 159 850
e 159 787
e 159 851
e 160 691
e 160 995
e 160 243
e 162 470
e 162 945
e 162 296
e 163 578
e 163 374
e 163 552
e 163 972
e 165 554
e 165 300
e 165 444
e 165 829
e 165 568
e 166 571
e 166 647
e 166 201
e 166 489
e 167 194
e 167 920
e 167 682
e 167 742
e 168 268
e 168 694
e 168 451
e 168 262
e 169 817
e 169 254
e 170 535
e 170 411
e 170 597
e 171 977
e 171 884
e 171 285
e 172 487
e 172 542
e 173 961
e 173 832
e 173 598
e 173 610
e 173 493
e 174 876
e 174 716
e 174 499
e 175 505
e 175 730
e 175 398
e 175 713
e 177 475
e 177 952
e 177 630
e 177 905
e 178 878
e 178 841
e 179 259
e 179 885
e 179 653
e 179 903
e 179 486
e 180 442
e 180 297
e 180 565
e 180 680
e 180 946
e 180 853
e 181 688
e 181 674
e 181 772
e 181 773
e 183 831
e 183 632
e 183 903
e 183 548
e 183 303
e 184 611
e 186 327
e 186 730
e 186 481
e 187 861
e 187 621
e 187 770
e 188 697
e 188 282
e 188 431
e 188 761
e 191 695
e 191 640
e 191 863
e 191 759
e 191 701
e 192 643
e 192 466
e 192 761
e 193 956
e 193 433
e 193 593
e 194 564
e 194 733
e 194 946
e 194 939
e 194 292
e 194 765
e 196 315
e 196 669
e 196 577
e 197 888
e 197 794
e 198 727
e 198 473
e 198 284
e 198 831
e 198 752
e 198 885
e 201 431
e 201 597
e 201 759
e 201 581
e 202 311
e 202 572
e 202 738
e 202 471
e 203 445
e 203 723
e 203 394
e 205 972
e 205 960
e 205 289
e 205 579
e 206 617
e 206 671
e 206 591
e 206 717
e 211 927
e 211 334
e 211 878
e 212 396
e 212 279
e 212 614
e 213 580
e 213 587
e 213 516
e 213 949
e 213 486
e 214 306
e 214 963
e 214 314
e 215 707
e 215 798
e 216 398
e 216 282
e 217 313
e 217 966
e 217 655
e 217 590
e 219 767
e 219 887
e 219 394
e 219 769
e 219 842
e 220 309
e 220 580
e 220 438
e 220 387
e 220 278
e 220 389
e 222 354
e 222 362
e 222 511
e 222 627
e 223 845
e 223 858
e 223 722
e 223 629
e 224 809
e 224 686
e 224 846
e 224 643
e 224 613
e 224 331
e 227 608
e 227 423
e 227 384
e 228 555
e 228 841
e 228 441
e 228 622
e 228 356
e 229 917
e 229 910
e 230 301
e 230 759
e 230 851
e 230 448
e 230 436
e 230 761
e 230 441
e 232 816
e 232 902
e 232 789
e 233 384
e 233 585
e 233 553
e 233 752
e 234 926
e 234 419
e 234 290
e 234 448
e 234 514
e 235 930
e 235 259
e 236 320
e 236 894
e 236 860
e 236 312
e 236 799
e 237 369
e 237 375
e 237 367
e 238 891
e 238 785
e 238 708
e 238 428
e 238 316
e 239 831
e 239 417
e 239 854
e 239 367
e 240 315
e 240 928
e 240 471
e 240 768
e 241 936
e 241 909
e 242 752
e 242 618
e 243 812
e 243 828
e 243 338
e 243 847
e 243 445
e 244 921
e 244 701
e 244 939
e 244 869
e 246 924
e 246 819
e 246 393
e 247 957
e 247 399
e 247 740
e 249 403
e 249 933
e 249 872
e 249 306
e 249 927
e 252 676
e 252 448
e 252 493
e 254 837
e 254 683
e 254 556
e 254 902
e 254 764
e 254 575
e 255 860
e 255 351
e 255 354
e 255 977
e 255 477
e 256 565
e 256 463
e 256 496
e 257 652
e 257 593
e 257 877
e 259 974
e 259 729
e 259 672
e 260 417
e 260 441
e 260 586
e 261 699
e 261 945
e 261 821
e 261 885
e 262 683
e 262 922
e 262 634
e 262 724
e 262 558
e 262 487
e 263 860
e 263 283
e 263 589
e 264 729
e 264 364
e 264 351
e 264 291
e 264 959
e 267 353
e 267 269
e 267 943
e 267 984
e 267 363
e 268 819
e 268 998
e 268 972
e 268 322
e 268 830
e 269 708
e 269 582
e 269 469
e 270 694
e 270 889
e 270 781
e 270 921
e 272 774
e 272 873
e 272 370
e 272 630
e 272 658
e 273 750
e 273 677
e 273 819
e 273 290
e 273 343
e 273 281
e 273 460
e 275 902
e 275 322
e 275 359
e 275 334
e 277 553
e 277 963
e 277 295
e 277 936
e 278 944
e 278 629
e 278 798
e 279 565
e 279 434
e 280 887
e 280 894
e 280 554
e 280 469
e 283 564
e 283 520
e 283 369
e 284 461
e 284 828
e 284 999
e 284 754
e 285 638
e 285 696
e 285 931
e 285 868
e 285 751
e 287 604
e 287 857
e 287 963
e 289 519
e 289 997
e 289 919
e 289 986
e 289 403
e 289 397
e 290 755
e 290 742
e 290 544
e 291 907
e 291 877
e 291 809
e 291 955
e 291 983
e 292 770
e 292 945
e 294 506
e 294 673
e 295 980
e 296 559
e 296 311
e 296 800
e 297 674
e 297 759
e 297 787
e 297 474
e 300 498
e 300 421
e 300 939
e 300 763
e 301 872
e 301 358
e 301 804
e 301 499
e 301 812
e 302 578
e 302 928
e 303 307
e 303 733
e 303 935
e 305 835
e 306 650
e 306 769
e 307 722
e 307 701
e 307 846
e 309 828
e 309 528
e 309 436
e 311 748
e 311 850
e 311 840
e 311 556
e 312 433
e 312 412
e 312 708
e 313 821
e 313 550
e 313 318
e 314 717
e 314 869
e 314 926
e 314 625
e 314 805
e 314 484
e 315 772
e 315 545
e 315 511
e 315 702
e 315 362
e 316 681
e 316 501
e 316 652
e 317 391
e 317 715
e 317 499
e 317 801
e 317 492
e 317 724
e 318 366
e 318 817
e 318 383
e 318 537
e 320 396
e 320 530
e 320 755
e 321 385
e 321 751
e 321 460
e 321 554
e 321 994
e 322 889
e 322 688
e 322 380
e 322 351
e 322 523
e 322 508
e 327 602
e 327 331
e 327 516
e 328 616
e 328 904
e 328 359
e 328 541
e 329 681
e 329 977
e 329 394
e 329 605
e 331 514
e 331 839
e 331 969
e 332 941
e 334 774
e 335 644
e 335 676
e 335 820
e 336 723
e 336 967
e 336 731
e 337 848
e 337 746
e 337 697
e 337 558
e 337 349
e 337 813
e 338 789
e 338 1000
e 339 686
e 339 473
e 339 428
e 342 381
e 342 782
e 343 622
e 343 912
e 343 916
e 343 699
e 345 398
e 345 798
e 345 674
e 345 450
e 346 585
e 346 798
e 346 751
e 346 997
e 346 867
e 346 943
e 348 724
e 348 862
e 348 486
e 348 431
e 349 546
e 349 856
e 349 966
e 349 556
e 351 664
e 351 951
e 352 395
e 352 727
e 352 992
e 352 496
e 352 885
e 353 742
e 354 449
e 354 583
e 354 399
e 356 818
e 356 758
e 356 534
e 358 663
e 358 619
e 358 927
e 358 986
e 358 497
e 359 994
e 359 912
e 360 844
e 360 628
e 360 632
e 361 621
e 361 648
e 361 691
e 363 412
e 363 800
e 363 765
e 363 842
e 363 756
e 363 459
e 364 629
e 364 553
e 365 769
e 365 548
e 365 621
e 365 368
e 365 951
e 365 418
e 365 505
e 366 885
e 366 604
e 366 605
e 367 860
e 367 917
e 367 610
e 368 755
e 368 701
e 369 419
e 369 1000
e 369 549
e 370 870
e 370 611
e 370 832
e 370 835
e 372 893
e 372 664
e 372 462
e 372 414
e 372 972
e 373 638
e 373 870
e 373 496
e 373 826
e 373 995
e 373 647
e 373 786
e 374 742
e 374 642
e 375 519
e 375 479
e 375 747
e 375 575
e 375 817
e 375 505
e 376 435
e 376 730
e 377 916
e 377 692
e 377 444
e 379 453
e 379 610
e 379 418
e 379 622
e 379 891
e 380 868
e 381 800
e 381 432
e 381 897
e 381 933
e 381 754
e 381 819
e 381 981
e 383 405
e 383 553
e 384 975
e 385 516
e 385 783
e 386 890
e 386 477
e 386 877
e 386 425
e 386 604
e 386 829
e 387 868
e 387 776
e 387 733
e 387 707
e 387 440
e 388 841
e 388 502
e 389 783
e 389 707
e 390 542
e 390 492
e 390 441
e 390 708
e 391 861
e 391 682
e 391 747
e 391 755
e 392 949
e 392 604
e 392 756
e 392 858
e 393 634
e 393 731
e 393 809
e 393 868
e 394 757
e 395 584
e 395 771
e 395 956
e 396 404
e 396 643
e 396 776
e 396 686
e 397 625
e 397 956
e 397 996
e 397 769
e 397 876
e 398 770
e 398 811
e 399 809
e 399 511
e 399 635
e 399 580
e 399 847
e 401 403
e 401 484
e 401 593
e 401 833
e 401 407
e 402 554
e 402 608
e 402 487
e 402 450
e 404 461
e 404 906
e 405 889
e 405 436
e 407 971
e 407 789
e 407 530
e 410 439
e 410 965
e 410 936
e 411 583
e 414 819
e 414 928
e 414 441
e 414 694
e 414 774
e 415 596
e 415 950
e 415 873
e 415 643
e 415 915
e 417 700
e 418 546
e 418 532
e 418 806
e 419 522
e 419 644
e 421 773
e 421 546
e 421 863
e 422 618
e 422 904
e 422 564
e 422 751
e 423 642
e 423 591
e 425 528
e 426 549
e 426 887
e 426 870
e 427 575
e 428 679
e 428 735
e 428 876
e 428 455
e 431 563
e 432 571
e 432 530
e 432 896
e 432 886
e 433 605
e 433 961
e 433 699
e 433 901
e 434 770
e 434 537
e 435 441
e 435 765
e 435 691
e 435 449
e 436 859
e 436 460
e 436 575
e 436 590
e 438 781
e 439 514
e 439 589
e 440 676
e 440 953
e 441 671
e 442 619
e 442 631
e 445 577
e 445 739
e 446 537
e 446 611
e 447 658
e 447 573
e 448 786
e 448 492
e 448 642
e 449 627
e 449 566
e 450 977
e 450 850
e 450 997
e 450 619
e 451 935
e 451 619
e 452 768
e 453 459
e 453 699
e 453 587
e 455 770
e 455 611
e 455 965
e 456 642
e 456 897
e 456 616
e 456 688
e 457 762
e 457 602
e 457 764
e 459 927
e 459 833
e 460 659
e 460 476
e 460 469
e 461 544
e 461 634
e 462 614
e 462 648
e 462 931
e 462 622
e 463 847
e 463 680
e 463 879
e 463 992
e 466 887
e 466 927
e 466 619
e 470 992
e 470 916
e 470 643
e 470 677
e 470 839
e 471 937
e 473 554
e 474 860
e 474 830
e 474 611
e 475 478
e 475 643
e 475 994
e 476 655
e 476 994
e 476 572
e 477 742
e 477 520
e 477 986
e 478 626
e 478 696
e 478 544
e 478 931
e 479 977
e 479 739
e 479 940
e 481 723
e 481 640
e 481 910
e 481 649
e 481 628
e 481 895
e 481 520
e 482 702
e 482 714
e 482 571
e 482 494
e 484 787
e 486 785
e 486 492
e 487 953
e 487 534
e 487 692
e 489 902
e 489 533
e 492 848
e 492 649
e 493 961
e 493 862
e 494 890
e 494 820
e 495 534
e 495 882
e 495 522
e 496 724
e 497 854
e 498 757
e 498 931
e 498 762
e 499 548
e 499 551
e 501 993
e 501 784
e 501 880
e 502 936
e 502 835
e 502 802
e 502 566
e 505 863
e 505 909
e 505 840
e 506 750
e 506 886
e 506 547
e 508 946
e 508 872
e 510 716
e 510 969
e 510 902
e 511 931
e 511 681
e 514 856
e 514 550
e 516 934
e 516 724
e 518 993
e 518 879
e 519 933
e 520 694
e 521 705
e 521 563
e 521 782
e 521 905
e 522 712
e 523 731
e 523 695
e 524 586
e 524 614
e 524 625
e 528 927
e 530 739
e 530 905
e 532 853
e 532 640
e 532 773
e 533 944
e 533 926
e 533 980
e 533 714
e 533 832
e 534 567
e 534 711
e 535 765
e 535 678
e 537 896
e 537 845
e 537 812
e 541 740
e 541 826
e 542 975
e 542 596
e 544 760
e 544 867
e 544 677
e 544 789
e 545 940
e 545 977
e 545 711
e 547 820
e 548 940
e 549 887
e 549 765
e 550 759
e 550 609
e 551 748
e 551 942
e 551 567
e 552 683
e 552 614
e 552 915
e 553 600
e 553 811
e 554 662
e 554 918
e 555 774
e 555 863
e 556 861
e 556 836
e 556 686
e 557 613
e 557 990
e 557 743
e 558 727
e 558 937
e 559 588
e 559 673
e 564 942
e 565 664
e 565 763
e 565 969
e 566 570
e 566 606
e 566 638
e 567 886
e 568 804
e 568 679
e 569 850
e 569 966
e 569 699
e 569 867
e 570 845
e 570 806
e 571 906
e 571 585
e 573 752
e 573 617
e 574 767
e 574 967
e 574 837
e 575 596
e 577 835
e 578 602
e 579 963
e 579 761
e 579 805
e 579 789
e 580 733
e 580 872
e 581 795
e 581 692
e 582 715
e 582 678
e 583 888
e 584 926
e 584 654
e 585 679
e 586 704
e 586 757
e 586 807
e 587 669
e 587 672
e 588 704
e 588 828
e 589 997
e 589 998
e 590 686
e 590 762
e 591 631
e 591 764
e 592 693
e 592 905
e 592 610
e 593 832
e 594 848
e 594 853
e 594 619
e 596 847
e 596 844
e 597 793
e 597 892
e 597 909
e 598 857
e 598 743
e 598 664
e 600 829
e 600 914
e 602 704
e 606 916
e 607 691
e 607 757
e 608 990
e 609 942
e 610 912
e 610 909
e 616 856
e 617 920
e 618 723
e 619 662
e 619 919
e 621 806
e 621 711
e 621 759
e 621 681
e 622 752
e 622 880
e 622 693
e 622 637
e 626 918
e 626 902
e 626 716
e 626 935
e 626 774
e 626 647
e 627 765
e 628 793
e 628 907
e 629 878
e 629 887
e 630 680
e 630 693
e 632 753
e 632 879
e 632 643
e 635 996
e 635 723
e 637 773
e 637 993
e 638 949
e 638 688
e 639 922
e 639 937
e 640 914
e 643 906
e 644 918
e 645 798
e 645 752
e 647 655
e 647 851
e 648 904
e 648 862
e 649 735
e 650 798
e 651 755
e 651 658
e 651 845
e 653 679
e 653 936
e 654 716
e 654 816
e 655 880
e 657 680
e 657 713
e 657 860
e 658 707
e 658 956
e 662 911
e 662 906
e 662 783
e 663 937
e 663 995
e 664 914
e 664 822
e 664 795
e 665 856
e 665 985
e 665 919
e 669 902
e 671 876
e 672 980
e 672 691
e 674 897
e 677 863
e 678 751
e 679 785
e 680 986
e 680 747
e 680 835
e 682 784
e 683 784
e 683 789
e 683 702
e 686 922
e 691 809
e 692 733
e 692 830
e 692 953
e 693 836
e 693 833
e 693 878
e 693 777
e 694 799
e 695 945
e 697 717
e 697 851
e 697 916
e 697 840
e 699 742
e 699 817
e 700 885
e 700 876
e 700 754
e 702 799
e 702 802
e 702 937
e 704 915
e 704 738
e 704 886
e 704 769
e 705 826
e 705 953
e 707 904
e 708 965
e 708 949
e 710 952
e 710 960
e 710 830
e 711 909
e 712 730
e 712 846
e 712 992
e 713 733
e 714 761
e 714 735
e 714 966
e 715 963
e 716 959
e 717 993
e 722 772
e 723 887
e 727 936
e 730 743
e 731 765
e 731 839
e 733 877
e 736 831
e 736 905
e 738 768
e 738 772
e 738 976
e 739 816
e 739 894
e 739 950
e 739 781
e 742 832
e 742 893
e 743 878
e 743 882
e 746 812
e 746 989
e 748 976
e 748 941
e 750 907
e 750 966
e 750 916
e 752 783
e 752 994
e 753 891
e 753 837
e 754 842
e 755 791
e 757 911
e 758 924
e 760 777
e 760 911
e 760 887
e 760 893
e 763 798
e 763 805
e 765 955
e 768 869
e 768 976
e 771 974
e 774 831
e 775 870
e 775 804
e 775 972
e 776 960
e 777 980
e 780 822
e 780 998
e 780 786
e 781 811
e 781 928
e 781 902
e 782 837
e 782 806
e 782 980
e 784 787
e 787 791
e 787 859
e 789 835
e 789 984
e 791 942
e 793 983
e 793 981
e 794 877
e 799 836
e 801 854
e 802 858
e 807 903
e 807 847
e 811 994
e 813 860
e 816 877
e 818 868
e 818 963
e 820 859
e 821 906
e 821 961
e 822 896
e 826 940
e 826 846
e 829 890
e 830 926
e 830 966
e 830 840
e 831 951
e 832 957
e 835 837
e 836 969
e 839 967
e 840 955
e 840 894
e 844 904
e 844 885
e 845 889
e 847 894
e 850 921
e 851 912
e 854 943
e 857 983
e 859 997
e 863 940
e 863 921
e 869 975
e 873 961
e 873 926
e 884 989
e 884 941
e 887 996
e 888 989
e 890 977
e 890 961
e 891 894
e 891 992
e 891 969
e 892 981
e 895 942
e 905 922
e 909 961
e 914 935
e 915 966
e 915 984
e 917 946
e 920 940
e 924 976
e 933 997
e 934 989
e 942 969
e 945 985
e 960 963
e 960 1000
e 965 976
