txt_Ins/graph-1000-790.txt
n 1000
e 0 690
e 0 786
e 0 564
e 0 485
e 3 432
e 3 170
e 3 420
e 4 497
e 4 642
e 4 732
e 7 841
e 7 962
e 7 401
e 7 361
e 9 51
e 9 142
e 9 930
e 10 422
e 10 958
e 10 334
e 12 879
e 12 37
e 12 641
e 12 143
e 12 587
e 12 704
e 13 703
e 13 450
e 13 118
e 13 571
e 13 745
e 13 167
e 13 794
e 13 317
e 14 227
e 14 522
e 14 768
e 14 908
e 14 604
e 14 195
e 15 422
e 15 914
e 15 68
e 15 939
e 18 584
e 18 663
e 18 459
e 19 706
e 19 425
e 19 613
e 20 235
e 20 483
e 20 32
e 20 459
e 21 784
e 21 89
e 21 994
e 21 675
e 22 195
e 22 915
e 22 328
e 23 695
e 23 553
e 23 834
e 23 815
e 23 742
e 26 836
e 26 402
e 26 962
e 26 341
e 26 886
e 26 237
e 27 161
e 27 649
e 27 605
e 27 166
e 28 167
e 28 605
e 28 739
e 30 534
e 30 509
e 30 271
e 32 365
e 32 568
e 32 390
e 32 172
e 32 106
e 32 919
e 32 601
e 33 50
e 33 841
e 33 662
e 33 930
e 35 293
e 35 900
e 35 426
e 35 695
e 35 711
e 35 573
e 35 390
e 37 254
e 37 650
e 37 280
e 37 191
e 37 827
e 38 588
e 38 800
e 38 452
e 39 122
e 39 767
e 39 734
e 39 652
e 43 433
e 43 707
e 43 55
e 44 320
e 44 380
e 44 379
e 44 437
e 44 606
e 45 658
e 45 81
e 45 735
e 45 98
e 45 149
e 46 177
e 46 994
e 46 291
e 46 180
e 47 901
e 47 551
e 47 541
e 47 331
e 47 170
e 48 998
e 48 565
e 48 577
e 48 612
e 48 190
e 48 288
e 48 371
e 49 228
e 49 547
e 49 617
e 49 950
e 49 433
e 50 933
e 50 905
e 50 168
e 51 151
e 51 190
e 51 712
e 51 883
e 51 475
e 51 448
e 51 832
e 51 656
e 52 782
e 52 908
e 52 541
e 53 572
e 53 145
e 53 685
e 55 589
e 55 255
e 55 723
e 55 109
e 55 190
e 55 728
e 56 695
e 56 625
e 56 995
e 56 461
e 56 793
e 57 701
e 57 129
e 57 576
e 57 279
e 59 621
e 59 109
e 59 80
e 59 773
e 59 433
e 59 366
e 59 234
e 61 331
e 61 229
e 61 280
e 61 638
e 62 768
e 62 387
e 62 906
e 62 496
e 62 721
e 62 513
e 62 685
e 62 380
e 66 984
e 66 951
e 66 126
e 66 905
e 66 552
e 66 590
e 68 241
e 68 868
e 68 475
e 68 845
e 68 248
e 68 132
e 68 651
e 68 962
e 69 836
e 69 260
e 69 523
e 70 304
e 70 770
e 70 391
e 70 726
e 71 431
e 71 996
e 71 970
e 71 811
e 71 628
e 71 973
e 71 277
e 71 955
e 73 295
e 73 642
e 73 459
e 74 333
e 74 784
e 74 805
e 75 513
e 75 239
e 75 973
e 75 610
e 76 954
e 76 414
e 76 468
e 76 133
e 76 612
e 76 372
e 76 317
e 78 376
e 78 766
e 78 867
e 78 562
e 79 384
e 79 302
e 79 929
e 80 884
e 80 385
e 80 615
e 81 126
e 81 672
e 81 480
e 82 416
e 82 529
e 82 496
e 82 603
e 83 694
e 83 319
e 83 142
e 83 157
e 83 998
e 84 901
e 84 527
e 84 95
e 84 277
e 86 867
e 86 213
e 86 610
e 86 646
e 86 445
e 86 890
e 87 592
e 87 861
e 87 819
e 87 783
e 87 693
e 88 914
e 88 513
e 88 608
e 89 196
e 89 989
e 92 517
e 92 938
e 92 178
e 93 608
e 93 642
e 93 681
e 94 587
e 94 726
e 94 551
e 94 361
e 94 944
e 94 235
e 94 774
e 95 158
e 95 782
e 95 254
e 95 513
e 96 359
e 96 392
e 96 334
e 96 243
e 96 933
e 96 903
e 97 902
e 97 485
e 97 612
e 97 396
e 97 155
e 97 829
e 98 358
e 98 908
e 98 682
e 98 389
e 98 166
e 99 182
e 99 478
e 99 445
e 99 202
e 100 810
e 100 757
e 100 267
e 100 728
e 100 886
e 100 588
e 100 999
e 101 112
e 101 906
e 101 215
e 101 861
e 103 472
e 103 707
e 103 331
e 105 278
e 105 567
e 105 956
e 105 276
e 105 911
e 106 943
e 106 150
e 107 847
e 107 520
e 107 798
e 109 295
e 109 979
e 109 896
e 109 391
e 109 221
e 110 468
e 110 180
e 110 531
e 110 135
e 111 486
e 111 932
e 111 835
e 111 451
e 112 183
e 112 663
e 112 294
e 112 431
e 112 634
e 112 644
e 113 233
e 113 363
e 113 477
e 116 810
e 116 240
e 116 938
e 118 124
e 118 210
e 118 493
e 118 712
e 118 296
e 118 900
e 118 942
e 119 131
e 119 385
e 119 320
e 120 140
e 120 439
e 120 426
e 121 681
e 121 386
e 121 382
e 122 762
e 122 164
e 124 935
e 124 246
e 124 359
e 124 827
e 124 319
e 124 650
e 125 877
e 125 944
e 125 682
e 125 592
e 125 411
e 125 153
e 125 812
e 125 454
e 126 141
e 126 767
e 126 145
e 126 891
e 126 465
e 126 424
e 127 228
e 127 894
e 127 536
e 127 555
e 128 775
e 128 902
e 128 593
e 128 726
e 129 646
e 129 768
e 129 435
e 129 681
e 131 550
e 131 819
e 131 281
e 132 805
e 132 573
e 132 159
e 133 557
e 133 838
e 133 328
e 135 563
e 135 844
e 135 761
e 135 888
e 137 451
e 137 653
e 137 840
e 137 850
e 138 582
e 138 179
e 138 445
e 140 286
e 140 373
e 140 732
e 140 154
e 141 226
e 141 254
e 141 498
e 141 754
e 142 536
e 143 301
e 143 392
e 143 597
e 143 949
e 144 773
e 144 255
e 144 872
e 144 663
e 144 277
e 145 171
e 145 177
e 145 201
e 146 150
e 146 892
e 146 850
e 146 567
e 147 881
e 147 942
e 147 997
e 147 630
e 148 916
e 148 554
e 148 520
e 148 878
e 148 183
e 149 691
e 149 515
e 149 214
e 150 722
e 150 498
e 151 375
e 151 352
e 151 468
e 151 805
e 152 392
e 152 204
e 152 443
e 152 446
e 152 909
e 153 546
e 153 929
e 153 548
e 153 959
e 153 223
e 153 970
e 154 410
e 154 386
e 154 395
e 155 580
e 155 375
e 155 403
e 155 755
e 155 462
e 155 654
e 155 321
e 157 392
e 157 658
e 157 304
e 157 968
e 158 701
e 158 321
e 158 849
e 158 786
e 158 850
e 159 690
e 159 994
e 159 242
e 161 469
e 161 944
e 161 295
e 162 577
e 162 373
e 162 551
e 162 971
e 164 553
e 164 299
e 164 443
e 164 828
e 164 567
e 165 570
e 165 646
e 165 200
e 165 488
e 166 193
e 166 919
e 166 681
e 166 741
e 167 267
e 167 693
e 167 450
e 167 261
e 168 816
e 168 253
e 169 534
e 169 410
e 169 596
e 170 976
e 170 883
e 170 284
e 171 486
e 171 541
e 172 960
e 172 831
e 172 597
e 172 609
e 172 492
e 173 875
e 173 715
e 173 498
e 174 504
e 174 729
e 174 397
e 174 712
e 176 474
e 176 951
e 176 629
e 176 904
e 177 877
e 177 840
e 178 258
e 178 884
e 178 652
e 178 902
e 178 485
e 179 441
e 179 296
e 179 564
e 179 679
e 179 945
e 179 852
e 180 687
e 180 673
e 180 771
e 180 772
e 182 830
e 182 631
e 182 902
e 182 547
e 182 302
e 183 610
e 185 326
e 185 729
e 185 480
e 186 860
e 186 620
e 186 769
e 187 696
e 187 281
e 187 430
e 187 760
e 190 694
e 190 639
e 190 862
e 190 758
e 190 700
e 191 642
e 191 465
e 191 760
e 192 955
e 192 432
e 192 592
e 193 563
e 193 732
e 193 945
e 193 938
e 193 291
e 193 764
e 195 314
e 195 668
e 195 576
e 196 887
e 196 793
e 197 726
e 197 472
e 197 283
e 197 830
e 197 751
e 197 884
e 200 430
e 200 596
e 200 758
e 200 580
e 201 310
e 201 571
e 201 737
e 201 470
e 202 444
e 202 722
e 202 393
e 204 971
e 204 959
e 204 288
e 204 578
e 205 616
e 205 670
e 205 590
e 205 716
e 210 926
e 210 333
e 210 877
e 211 395
e 211 278
e 211 613
e 212 579
e 212 586
e 212 515
e 212 948
e 212 485
e 213 305
e 213 962
e 213 313
e 214 706
e 214 797
e 215 397
e 215 281
e 216 312
e 216 965
e 216 654
e 216 589
e 218 766
e 218 886
e 218 393
e 218 768
e 218 841
e 219 308
e 219 579
e 219 437
e 219 386
e 219 277
e 219 388
e 221 353
e 221 361
e 221 510
e 221 626
e 222 844
e 222 857
e 222 721
e 222 628
e 223 808
e 223 685
e 223 845
e 223 642
e 223 612
e 223 330
e 226 607
e 226 422
e 226 383
e 227 554
e 227 840
e 227 440
e 227 621
e 227 355
e 228 916
e 228 909
e 229 300
e 229 758
e 229 850
e 229 447
e 229 435
e 229 760
e 229 440
e 231 815
e 231 901
e 231 788
e 232 383
e 232 584
e 232 552
e 232 751
e 233 925
e 233 418
e 233 289
e 233 447
e 233 513
e 234 929
e 234 258
e 235 319
e 235 893
e 235 859
e 235 311
e 235 798
e 236 368
e 236 374
e 236 366
e 237 890
e 237 784
e 237 707
e 237 427
e 237 315
e 238 830
e 238 416
e 238 853
e 238 366
e 239 314
e 239 927
e 239 470
e 239 767
e 240 935
e 240 908
e 241 751
e 241 617
e 242 811
e 242 827
e 242 337
e 242 846
e 242 444
e 243 920
e 243 700
e 243 938
e 243 868
e 245 923
e 245 818
e 245 392
e 246 956
e 246 398
e 246 739
e 248 402
e 248 932
e 248 871
e 248 305
e 248 926
e 251 675
e 251 447
e 251 492
e 253 836
e 253 682
e 253 555
e 253 901
e 253 763
e 253 574
e 254 859
e 254 350
e 254 353
e 254 976
e 254 476
e 255 564
e 255 462
e 255 495
e 256 651
e 256 592
e 256 876
e 258 973
e 258 728
e 258 671
e 259 416
e 259 440
e 259 585
e 260 698
e 260 944
e 260 820
e 260 884
e 261 682
e 261 921
e 261 633
e 261 723
e 261 557
e 261 486
e 262 859
e 262 282
e 262 588
e 263 728
e 263 363
e 263 350
e 263 290
e 263 958
e 266 352
e 266 268
e 266 942
e 266 983
e 266 362
e 267 818
e 267 997
e 267 971
e 267 321
e 267 829
e 268 707
e 268 581
e 268 468
e 269 693
e 269 888
e 269 780
e 269 920
e 271 773
e 271 872
e 271 369
e 271 629
e 271 657
e 272 749
e 272 676
e 272 818
e 272 289
e 272 342
e 272 280
e 272 459
e 274 901
e 274 321
e 274 358
e 274 333
e 276 552
e 276 962
e 276 294
e 276 935
e 277 943
e 277 628
e 277 797
e 278 564
e 278 433
e 279 886
e 279 893
e 279 553
e 279 468
e 282 563
e 282 519
e 282 368
e 283 460
e 283 827
e 283 998
e 283 753
e 284 637
e 284 695
e 284 930
e 284 867
e 284 750
e 286 603
e 286 856
e 286 962
e 288 518
e 288 996
e 288 918
e 288 985
e 288 402
e 288 396
e 289 754
e 289 741
e 289 543
e 290 906
e 290 876
e 290 808
e 290 954
e 290 982
e 291 769
e 291 944
e 293 505
e 293 672
e 294 979
e 295 558
e 295 310
e 295 799
e 296 673
e 296 758
e 296 786
e 296 473
e 299 497
e 299 420
e 299 938
e 299 762
e 300 871
e 300 357
e 300 803
e 300 498
e 300 811
e 301 577
e 301 927
e 302 306
e 302 732
e 302 934
e 304 834
e 305 649
e 305 768
e 306 721
e 306 700
e 306 845
e 308 827
e 308 527
e 308 435
e 310 747
e 310 849
e 310 839
e 310 555
e 311 432
e 311 411
e 311 707
e 312 820
e 312 549
e 312 317
e 313 716
e 313 868
e 313 925
e 313 624
e 313 804
e 313 483
e 314 771
e 314 544
e 314 510
e 314 701
e 314 361
e 315 680
e 315 500
e 315 651
e 316 390
e 316 714
e 316 498
e 316 800
e 316 491
e 316 723
e 317 365
e 317 816
e 317 382
e 317 536
e 319 395
e 319 529
e 319 754
e 320 384
e 320 750
e 320 459
e 320 553
e 320 993
e 321 888
e 321 687
e 321 379
e 321 350
e 321 522
e 321 507
e 326 601
e 326 330
e 326 515
e 327 615
e 327 903
e 327 358
e 327 540
e 328 680
e 328 976
e 328 393
e 328 604
e 330 513
e 330 838
e 330 968
e 331 940
e 333 773
e 334 643
e 334 675
e 334 819
e 335 722
e 335 966
e 335 730
e 336 847
e 336 745
e 336 696
e 336 557
e 336 348
e 336 812
e 337 788
e 337 999
e 338 685
e 338 472
e 338 427
e 341 380
e 341 781
e 342 621
e 342 911
e 342 915
e 342 698
e 344 397
e 344 797
e 344 673
e 344 449
e 345 584
e 345 797
e 345 750
e 345 996
e 345 866
e 345 942
e 347 723
e 347 861
e 347 485
e 347 430
e 348 545
e 348 855
e 348 965
e 348 555
e 350 663
e 350 950
e 351 394
e 351 726
e 351 991
e 351 495
e 351 884
e 352 741
e 353 448
e 353 582
e 353 398
e 355 817
e 355 757
e 355 533
e 357 662
e 357 618
e 357 926
e 357 985
e 357 496
e 358 993
e 358 911
e 359 843
e 359 627
e 359 631
e 360 620
e 360 647
e 360 690
e 362 411
e 362 799
e 362 764
e 362 841
e 362 755
e 362 458
e 363 628
e 363 552
e 364 768
e 364 547
e 364 620
e 364 367
e 364 950
e 364 417
e 364 504
e 365 884
e 365 603
e 365 604
e 366 859
e 366 916
e 366 609
e 367 754
e 367 700
e 368 418
e 368 999
e 368 548
e 369 869
e 369 610
e 369 831
e 369 834
e 371 892
e 371 663
e 371 461
e 371 413
e 371 971
e 372 637
e 372 869
e 372 495
e 372 825
e 372 994
e 372 646
e 372 785
e 373 741
e 373 641
e 374 518
e 374 478
e 374 746
e 374 574
e 374 816
e 374 504
e 375 434
e 375 729
e 376 915
e 376 691
e 376 443
e 378 452
e 378 609
e 378 417
e 378 621
e 378 890
e 379 867
e 380 799
e 380 431
e 380 896
e 380 932
e 380 753
e 380 818
e 380 980
e 382 404
e 382 552
e 383 974
e 384 515
e 384 782
e 385 889
e 385 476
e 385 876
e 385 424
e 385 603
e 385 828
e 386 867
e 386 775
e 386 732
e 386 706
e 386 439
e 387 840
e 387 501
e 388 782
e 388 706
e 389 541
e 389 491
e 389 440
e 389 707
e 390 860
e 390 681
e 390 746
e 390 754
e 391 948
e 391 603
e 391 755
e 391 857
e 392 633
e 392 730
e 392 808
e 392 867
e 393 756
e 394 583
e 394 770
e 394 955
e 395 403
e 395 642
e 395 775
e 395 685
e 396 624
e 396 955
e 396 995
e 396 768
e 396 875
e 397 769
e 397 810
e 398 808
e 398 510
e 398 634
e 398 579
e 398 846
e 400 402
e 400 483
e 400 592
e 400 832
e 400 406
e 401 553
e 401 607
e 401 486
e 401 449
e 403 460
e 403 905
e 404 888
e 404 435
e 406 970
e 406 788
e 406 529
e 409 438
e 409 964
e 409 935
e 410 582
e 413 818
e 413 927
e 413 440
e 413 693
e 413 773
e 414 595
e 414 949
e 414 872
e 414 642
e 414 914
e 416 699
e 417 545
e 417 531
e 417 805
e 418 521
e 418 643
e 420 772
e 420 545
e 420 862
e 421 617
e 421 903
e 421 563
e 421 750
e 422 641
e 422 590
e 424 527
e 425 548
e 425 886
e 425 869
e 426 574
e 427 678
e 427 734
e 427 875
e 427 454
e 430 562
e 431 570
e 431 529
e 431 895
e 431 885
e 432 604
e 432 960
e 432 698
e 432 900
e 433 769
e 433 536
e 434 440
e 434 764
e 434 690
e 434 448
e 435 858
e 435 459
e 435 574
e 435 589
e 437 780
e 438 513
e 438 588
e 439 675
e 439 952
e 440 670
e 441 618
e 441 630
e 444 576
e 444 738
e 445 536
e 445 610
e 446 657
e 446 572
e 447 785
e 447 491
e 447 641
e 448 626
e 448 565
e 449 976
e 449 849
e 449 996
e 449 618
e 450 934
e 450 618
e 451 767
e 452 458
e 452 698
e 452 586
e 454 769
e 454 610
e 454 964
e 455 641
e 455 896
e 455 615
e 455 687
e 456 761
e 456 601
e 456 763
e 458 926
e 458 832
e 459 658
e 459 475
e 459 468
e 460 543
e 460 633
e 461 613
e 461 647
e 461 930
e 461 621
e 462 846
e 462 679
e 462 878
e 462 991
e 465 886
e 465 926
e 465 618
e 469 991
e 469 915
e 469 642
e 469 676
e 469 838
e 470 936
e 472 553
e 473 859
e 473 829
e 473 610
e 474 477
e 474 642
e 474 993
e 475 654
e 475 993
e 475 571
e 476 741
e 476 519
e 476 985
e 477 625
e 477 695
e 477 543
e 477 930
e 478 976
e 478 738
e 478 939
e 480 722
e 480 639
e 480 909
e 480 648
e 480 627
e 480 894
e 480 519
e 481 701
e 481 713
e 481 570
e 481 493
e 483 786
e 485 784
e 485 491
e 486 952
e 486 533
e 486 691
e 488 901
e 488 532
e 491 847
e 491 648
e 492 960
e 492 861
e 493 889
e 493 819
e 494 533
e 494 881
e 494 521
e 495 723
e 496 853
e 497 756
e 497 930
e 497 761
e 498 547
e 498 550
e 500 992
e 500 783
e 500 879
e 501 935
e 501 834
e 501 801
e 501 565
e 504 862
e 504 908
e 504 839
e 505 749
e 505 885
e 505 546
e 507 945
e 507 871
e 509 715
e 509 968
e 509 901
e 510 930
e 510 680
e 513 855
e 513 549
e 515 933
e 515 723
e 517 992
e 517 878
e 518 932
e 519 693
e 520 704
e 520 562
e 520 781
e 520 904
e 521 711
e 522 730
e 522 694
e 523 585
e 523 613
e 523 624
e 527 926
e 529 738
e 529 904
e 531 852
e 531 639
e 531 772
e 532 943
e 532 925
e 532 979
e 532 713
e 532 831
e 533 566
e 533 710
e 534 764
e 534 677
e 536 895
e 536 844
e 536 811
e 540 739
e 540 825
e 541 974
e 541 595
e 543 759
e 543 866
e 543 676
e 543 788
e 544 939
e 544 976
e 544 710
e 546 819
e 547 939
e 548 886
e 548 764
e 549 758
e 549 608
e 550 747
e 550 941
e 550 566
e 551 682
e 551 613
e 551 914
e 552 599
e 552 810
e 553 661
e 553 917
e 554 773
e 554 862
e 555 860
e 555 835
e 555 685
e 556 612
e 556 989
e 556 742
e 557 726
e 557 936
e 558 587
e 558 672
e 563 941
e 564 663
e 564 762
e 564 968
e 565 569
e 565 605
e 565 637
e 566 885
e 567 803
e 567 678
e 568 849
e 568 965
e 568 698
e 568 866
e 569 844
e 569 805
e 570 905
e 570 584
e 572 751
e 572 616
e 573 766
e 573 966
e 573 836
e 574 595
e 576 834
e 577 601
e 578 962
e 578 760
e 578 804
e 578 788
e 579 732
e 579 871
e 580 794
e 580 691
e 581 714
e 581 677
e 582 887
e 583 925
e 583 653
e 584 678
e 585 703
e 585 756
e 585 806
e 586 668
e 586 671
e 587 703
e 587 827
e 588 996
e 588 997
e 589 685
e 589 761
e 590 630
e 590 763
e 591 692
e 591 904
e 591 609
e 592 831
e 593 847
e 593 852
e 593 618
e 595 846
e 595 843
e 596 792
e 596 891
e 596 908
e 597 856
e 597 742
e 597 663
e 599 828
e 599 913
e 601 703
e 605 915
e 606 690
e 606 756
e 607 989
e 608 941
e 609 911
e 609 908
e 615 855
e 616 919
e 617 722
e 618 661
e 618 918
e 620 805
e 620 710
e 620 758
e 620 680
e 621 751
e 621 879
e 621 692
e 621 636
e 625 917
e 625 901
e 625 715
e 625 934
e 625 773
e 625 646
e 626 764
e 627 792
e 627 906
e 628 877
e 628 886
e 629 679
e 629 692
e 631 752
e 631 878
e 631 642
e 634 995
e 634 722
e 636 772
e 636 992
e 637 948
e 637 687
e 638 921
e 638 936
e 639 913
e 642 905
e 643 917
e 644 797
e 644 751
e 646 654
e 646 850
e 647 903
e 647 861
e 648 734
e 649 797
e 650 754
e 650 657
e 650 844
e 652 678
e 652 935
e 653 715
e 653 815
e 654 879
e 656 679
e 656 712
e 656 859
e 657 706
e 657 955
e 661 910
e 661 905
e 661 782
e 662 936
e 662 994
e 663 913
e 663 821
e 663 794
e 664 855
e 664 984
e 664 918
e 668 901
e 670 875
e 671 979
e 671 690
e 673 896
e 676 862
e 677 750
e 678 784
e 679 985
e 679 746
e 679 834
e 681 783
e 682 783
e 682 788
e 682 701
e 685 921
e 690 808
e 691 732
e 691 829
e 691 952
e 692 835
e 692 832
e 692 877
e 692 776
e 693 798
e 694 944
e 696 716
e 696 850
e 696 915
e 696 839
e 698 741
e 698 816
e 699 884
e 699 875
e 699 753
e 701 798
e 701 801
e 701 936
e 703 914
e 703 737
e 703 885
e 703 768
e 704 825
e 704 952
e 706 903
e 707 964
e 707 948
e 709 951
e 709 959
e 709 829
e 710 908
e 711 729
e 711 845
e 711 991
e 712 732
e 713 760
e 713 734
e 713 965
e 714 962
e 715 958
e 716 992
e 721 771
e 722 886
e 726 935
e 729 742
e 730 764
e 730 838
e 732 876
e 735 830
e 735 904
e 737 767
e 737 771
e 737 975
e 738 815
e 738 893
e 738 949
e 738 780
e 741 831
e 741 892
e 742 877
e 742 881
e 745 811
e 745 988
e 747 975
e 747 940
e 749 906
e 749 965
e 749 915
e 751 782
e 751 993
e 752 890
e 752 836
e 753 841
e 754 790
e 756 910
e 757 923
e 759 776
e 759 910
e 759 886
e 759 892
e 762 797
e 762 804
e 764 954
e 767 868
e 767 975
e 770 973
e 773 830
e 774 869
e 774 803
e 774 971
e 775 959
e 776 979
e 779 821
e 779 997
e 779 785
e 780 810
e 780 927
e 780 901
e 781 836
e 781 805
e 781 979
e 783 786
e 786 790
e 786 858
e 788 834
e 788 983
e 790 941
e 792 982
e 792 980
e 793 876
e 798 835
e 800 853
e 801 857
e 806 902
e 806 846
e 810 993
e 812 859
e 815 876
e 817 867
e 817 962
e 819 858
e 820 905
e 820 960
e 821 895
e 825 939
e 825 845
e 828 889
e 829 925
e 829 965
e 829 839
e 830 950
e 831 956
e 834 836
e 835 968
e 838 966
e 839 954
e 839 893
e 843 903
e 843 884
e 844 888
e 846 893
e 849 920
e 850 911
e 853 942
e 856 982
e 858 996
e 862 939
e 862 920
e 868 974
e 872 960
e 872 925
e 883 988
e 883 940
e 886 995
e 887 988
e 889 976
e 889 960
e 890 893
e 890 991
e 890 968
e 891 980
e 894 941
e 904 921
e 908 960
e 913 934
e 914 965
e 914 983
e 916 945
e 919 939
e 923 975
e 932 996
e 933 988
e 941 968
e 944 984
e 959 962
e 959 999
e 964 975
